p cnf 66 238
-1 -2 -3 0
1 2 -3 0
-1 2 3 0
1 -2 3 0
5 -2 0
5 4 0
2 -4 -5 0
5 -6 -7 0
-5 6 -7 0
5 6 7 0
-5 -6 7 0
-8 -3 0
-8 7 0
3 -7 8 0
-10 -9 0
-10 6 0
9 -6 10 0
-11 10 0
-11 9 0
-10 -9 11 0
12 9 0
12 11 0
-9 -11 -12 0
14 -13 0
14 -6 0
13 6 -14 0
-17 15 0
-17 16 0
-15 -16 17 0
18 3 0
18 -17 0
-3 17 -18 0
-19 14 0
-19 -18 0
-14 18 19 0
20 -9 0
20 -19 0
9 19 -20 0
21 -12 0
21 -20 0
12 20 -21 0
22 -8 0
22 21 0
8 -21 -22 0
1 23 -24 0
-1 -23 -24 0
1 -23 24 0
-1 23 24 0
-25 -15 0
-25 -9 0
15 9 25 0
26 16 0
26 -25 0
-16 25 -26 0
24 26 -27 0
-24 -26 -27 0
24 -26 27 0
-24 26 27 0
-28 17 0
-28 10 0
-17 -10 28 0
-17 -2 -29 0
17 2 -29 0
-17 2 29 0
17 -2 29 0
30 -28 0
30 29 0
28 -29 -30 0
11 30 -31 0
-11 -30 -31 0
11 -30 31 0
-11 30 31 0
-32 -27 0
-32 -31 0
27 31 32 0
-1 4 -33 0
1 -4 -33 0
-1 -4 33 0
1 4 33 0
34 33 0
34 14 0
-33 -14 -34 0
3 17 -35 0
-3 -17 -35 0
3 -17 35 0
-3 17 35 0
36 34 0
36 35 0
-34 -35 -36 0
-37 -28 0
-37 -36 0
28 36 37 0
38 32 0
38 -37 0
-32 37 -38 0
39 22 0
39 -38 0
-22 38 -39 0
-40 6 0
-40 26 0
-6 -26 40 0
41 -40 0
41 -25 0
40 25 -41 0
-42 -13 0
-42 -14 0
13 14 42 0
43 41 0
43 -42 0
-41 42 -43 0
-44 10 0
-44 -30 0
-10 30 44 0
-45 6 0
-45 44 0
-6 -44 45 0
-46 -29 0
-46 -5 0
29 5 46 0
-47 1 0
-47 46 0
-1 -46 47 0
-48 45 0
-48 -47 0
-45 47 48 0
-50 -10 0
-50 24 0
10 -24 50 0
49 -50 -51 0
-49 50 -51 0
49 50 51 0
-49 -50 51 0
52 -2 0
52 10 0
2 -10 -52 0
-53 -17 0
-53 52 0
17 -52 53 0
-35 -53 -54 0
35 53 -54 0
-35 53 54 0
35 -53 54 0
-55 -2 0
-55 -26 0
2 26 55 0
-56 54 0
-56 55 0
-54 -55 56 0
-57 -51 0
-57 -56 0
51 56 57 0
58 -17 0
58 -9 0
17 9 -58 0
-52 46 -59 0
52 -46 -59 0
-52 -46 59 0
52 46 59 0
60 24 0
60 -25 0
-24 25 -60 0
-59 -60 -61 0
59 60 -61 0
-59 60 61 0
59 -60 61 0
62 58 0
62 -61 0
-58 61 -62 0
-57 62 -63 0
57 -62 -63 0
-57 -62 63 0
57 62 63 0
-64 -48 0
-64 63 0
48 -63 64 0
-43 64 -65 0
43 -64 -65 0
-43 -64 65 0
43 64 65 0
66 39 0
66 65 0
-39 -65 -66 0
-50 15 -63 56 -46 -66 0
45 62 0
-61 -10 -18 0
-13 -44 63 0
-37 -60 2 0
28 45 0
-16 66 -40 -13 63 0
-39 -16 45 -14 50 0
50 -42 46 -16 61 -38 0
-3 36 40 21 0
-59 -55 -45 -29 15 0
-30 -53 -4 -47 -54 0
-3 23 11 -36 -50 0
-26 44 -55 47 18 0
49 -6 24 16 -26 7 0
-15 -40 59 49 43 -24 0
-7 42 3 41 -56 0
-59 43 0
-53 33 34 -27 49 0
-54 64 -57 -49 0
-33 61 -14 7 32 -10 0
35 65 54 56 -52 0
61 -57 -55 0
-4 8 -16 56 -47 0
14 -26 36 0
-30 65 -61 -31 -16 0
-10 58 14 -37 0
14 53 -2 -5 0
-29 23 8 -55 0
-23 7 29 0
66 -1 0
35 46 54 -34 -66 5 0
56 -51 0
31 28 56 10 0
-57 53 -20 -5 -3 0
6 -60 0
-47 7 -58 0
46 -30 0
-63 -62 -53 -26 -17 0
-65 -13 3 0
35 57 -62 0
12 39 0
51 64 0
-44 34 36 4 -2 0
-63 -22 -51 -66 -1 49 0
-23 43 -7 -62 0
-64 34 -22 6 29 -12 0
33 -13 -27 0
-61 -17 43 -53 0
31 21 -17 0
-61 53 0
-8 -37 -35 54 -21 -29 0
50 7 0
-39 37 66 13 10 22 0
6 20 36 -7 63 13 0
66 0
